          25
          40
           1          11           2
           2           2           3
           3          10           7
           4           8           4
           5           9           5
           6           7           2
           7           4           1
           8           6           1
           9           4           5
          10           8           3
          11           1           3
          12           5           5
          13           3           1
          14          12           4
          15           6           2
          16           2           4
          17          11           4
          18          10           2
          19           3           2
          20          11           2
          21           3           4
          22          26           4
          23           8           4
          24           3           2
          25           6           2
